Route #1: 22 8 29
Route #2: 17 12 4
Route #3: 13
Route #4: 9 3 11 28
Route #5: 7
Route #6: 16
Route #7: 1
Route #8: 26 6 19 23 27
Route #9: 24
Route #10: 21 2
Route #11: 14
Route #12: 20 25
Route #13: 5 15 18 10
Route #14: 30 31

Cost: 2214.017148007906
